minizinc/sudoku_problems2/sudoku_p33.dzn
%
% sudoku_p33.dzn
% See http://www.hakank.org/minizinc/sudoku_gcc.mzn
% 
% This problem is problem 33 from
% Gecode's sudoku.cpp
% http://www.gecode.org/gecode-doc-latest/sudoku_8cpp-source.html
% 
x = array2d(1..n, 1..n, [   
% 33
  _, 12, 17,  3,  _, 21,  _,  _, 13,  4, 15,  _,  _, 18,  _,  _,  _,  _,  _,  _,  _,  _,  _,  1,  _,
 16,  _,  _, 20,  _,  _,  _,  _,  _,  7,  _, 24,  _,  _,  _,  _,  _,  _,  _, 21,  _,  4,  2, 23,  _,
 10,  _, 13,  _,  _,  _,  5, 24,  8, 11,  _,  _,  _,  3,  9, 16,  _,  4,  _,  _, 18,  _,  _,  _, 21,
  1, 14,  2, 24, 11,  _,  _,  _,  _, 10,  8, 23,  _,  _,  6, 15, 12, 13,  9,  _, 17,  _,  _,  _, 16,
 18, 23,  _,  _,  4,  _,  _,  3,  _,  _,  _,  _,  _, 19,  _,  _,  5, 24, 22,  _,  _,  _,  _,  9,  _,
  _,  _,  _, 19, 14, 22, 25,  _,  _,  9, 16,  8,  _,  _, 13,  7,  _,  _,  _,  _,  _,  _, 11, 10,  _,
 11,  _, 22,  9,  _,  _, 21,  _,  _,  _,  _,  6,  _,  _,  _,  2,  _, 15, 18,  _, 20, 19,  _,  _,  _,
  _, 21, 23,  _,  3,  8,  6, 10,  _,  _, 11, 17,  _,  _,  _,  _, 24,  _, 19,  _,  2,  _,  _,  7,  _,
  7, 10,  6,  _,  _,  2,  _,  _,  3, 23,  _,  _,  _,  _,  _,  4, 20, 25,  _,  _, 16,  8, 17, 18, 12,
  _,  1,  _,  _,  _,  _,  _, 19,  _, 12, 20,  3,  _,  _,  _,  _, 17, 11,  _,  _,  5, 21,  4,  _,  _,
  _, 17,  _,  _,  _,  _,  _,  _, 25,  _, 18,  _,  5,  7,  _,  _,  _,  _, 16,  _,  _,  2,  1, 11,  4,
  _,  _,  _,  _,  7,  _,  _,  _,  _,  _, 14, 25,  1,  _,  _,  _,  _,  3,  _,  2,  _,  _, 10,  _,  _,
  _,  5,  9,  _,  1, 15, 18,  _, 21,  8,  _, 22, 19, 16,  _, 11,  _,  _, 10, 17,  _,  _,  _,  _, 14,
 23, 18,  _,  _, 13,  _,  _,  _,  _, 24,  3, 20,  _,  _, 10,  _, 25,  9,  _,  _,  8, 15,  _,  _,  _,
  _, 24,  _,  _,  _,  _, 10,  _,  _, 14,  2,  _,  8,  _, 17, 23,  _, 19,  7,  _, 25,  _,  _,  _,  _,
  _, 22, 12,  _,  _, 25,  _,  _,  _,  _, 17,  2,  _,  _,  _, 10,  7,  _,  _, 18, 13,  _,  _,  _,  1,
  _,  6,  _,  _,  _,  _,  _, 22,  _, 19,  _,  1,  4,  _, 11, 13, 16,  _,  3,  _, 24,  9, 15,  2,  _,
  _,  _,  _,  _,  _,  _,  _, 12, 16,  _,  _,  _,  _,  _,  _,  _,  _,  _,  4,  _,  _,  _, 22,  _,  _,
 17, 13, 21,  _,  _,  _,  8, 23,  7,  _,  _,  _,  _,  _,  _,  _, 15, 20,  2, 12,  _, 14,  _,  _, 11,
  _,  _, 20, 25,  2, 18,  _, 15,  _,  3,  _,  _,  _, 23,  7, 19,  _, 14,  _,  6,  _,  _, 21,  8,  5,
 13,  _, 14,  _,  _,  _, 12,  _,  4,  _,  7, 11,  _,  _, 18,  _,  _,  _,  _, 10,  _,  1,  _,  _, 22,
 19,  _,  _, 22,  _,  _,  7,  _,  _, 13,  _, 10,  _,  _,  4,  _,  _,  _, 24, 23, 11, 16,  _,  _,  2,
  9,  _,  7,  _,  6,  _,  _, 20,  _,  _, 25,  _,  _, 24,  _,  _,  _,  _, 13,  _,  _,  _,  8,  _,  _,
  _,  2, 18, 23,  _,  _, 16, 14,  1,  _, 13,  _,  _,  8,  _,  _,  _, 22, 20,  _, 12, 25, 19, 17,  _,
 15, 16,  _,  _,  8, 11,  _,  2,  _, 21,  _,  _, 20, 17,  _,  _,  _,  _,  _,  1,  _,  5, 14,  _,  _
]);

n = 25;


